data/solutions/recovery/degenerate/intermediate/binding/degenerate_intermediate_instance21/22.sol
Elapsed time: 0.03
Upper bound: 30646580.0
Planning weighted value: 1.01887091518e+11
C[0]=30646580.0
C[1]=30558410.0
C[2]=30521065.0
C[3]=29662291.0
C[4]=28647013.0
C[5]=28252440.0
C[6]=27182339.0
C[7]=26500176.0
C[8]=24550927.0
C[9]=24477305.0
C[10]=0.0
C[11]=0.0
y[0]=9
y[1]=1
y[2]=8
y[3]=3
y[4]=5
y[5]=4
y[6]=7
y[7]=6
y[8]=9
y[9]=2
y[10]=7
y[11]=3
y[12]=7
y[13]=5
y[14]=6
y[15]=0
y[16]=5
y[17]=9
y[18]=8
y[19]=3
y[20]=4
y[21]=0
y[22]=0
y[23]=9
y[24]=0
y[25]=0
y[26]=3
y[27]=1
y[28]=3
y[29]=4
y[30]=3
y[31]=5
y[32]=5
y[33]=6
y[34]=8
y[35]=2
y[36]=7
y[37]=7
y[38]=6
y[39]=5
y[40]=7
y[41]=7
y[42]=7
y[43]=6
y[44]=4
y[45]=4
y[46]=8
y[47]=9
y[48]=0
y[49]=5
y[50]=6
y[51]=9
y[52]=3
y[53]=9
y[54]=1
y[55]=4
y[56]=2
y[57]=1
y[58]=7
y[59]=7
y[60]=2
y[61]=1
y[62]=7
y[63]=5
y[64]=2
