data/solutions/recovery/degenerate/intermediate/binding/degenerate_intermediate_instance21/22.log

Log started (V12.6.3.0) Sun Apr 22 12:29:00 2018

New value for default parallel thread count: 1

Problem '/tmp/tmpDyNCaI.pyomo.lp' read.
Read time = 0.01 sec. (0.58 ticks)

Problem name         : /tmp/tmpDyNCaI.pyomo.lp
Objective sense      : Minimize
Variables            :     794  [Nneg: 1,  Binary: 780,  General Integer: 13]
Objective nonzeros   :       1
Linear constraints   :     157  [Less: 77,  Equal: 80]
  Nonzeros           :   41016
  RHS nonzeros       :      66

Variables            : Min LB: 0.000000         Max UB: 1.000000       
Objective nonzeros   : Min   : 1.000000         Max   : 1.000000       
Linear constraints   :
  Nonzeros           : Min   : 1.000000         Max   : 8298339.       
  RHS nonzeros       : Min   : 1.000000         Max   : 1.000000       
Tried aggregator 2 times.
MIP Presolve eliminated 127 rows and 683 columns.
Aggregator did 10 substitutions.
Reduced MIP has 20 rows, 101 columns, and 210 nonzeros.
Reduced MIP has 100 binaries, 1 generals, 0 SOSs, and 0 indicators.
Presolve time = 0.00 sec. (2.81 ticks)
Found incumbent of value 7.5773710e+07 after 0.00 sec. (3.84 ticks)
Probing time = 0.00 sec. (0.10 ticks)
Tried aggregator 1 time.
Reduced MIP has 20 rows, 101 columns, and 210 nonzeros.
Reduced MIP has 100 binaries, 1 generals, 0 SOSs, and 0 indicators.
Presolve time = 0.00 sec. (0.16 ticks)
Probing time = 0.00 sec. (0.10 ticks)
Clique table members: 10.
MIP emphasis: balance optimality and feasibility.
MIP search method: dynamic search.
Parallel mode: none, using 1 thread.
Root relaxation solution time = 0.00 sec. (0.14 ticks)

        Nodes                                         Cuts/
   Node  Left     Objective  IInf  Best Integer    Best Bound    ItCnt     Gap

*     0+    0                       7.57737e+07   2.65002e+07            65.03%
      0     0   2.80999e+07    17   7.57737e+07   2.80999e+07       33   62.92%
*     0+    0                       4.81638e+07   2.80999e+07            41.66%
      0     0   2.84567e+07    17   4.81638e+07      Fract: 4       47   40.92%
*     0+    0                       3.64066e+07   2.84567e+07            21.84%
*     0+    0                       3.29420e+07   2.84567e+07            13.62%
*     0+    0                       3.24896e+07   2.84567e+07            12.41%
*     0+    0                       3.19633e+07   2.84567e+07            10.97%
      0     2   2.84567e+07    17   3.19633e+07   2.84567e+07       51   10.97%
Elapsed time = 0.01 sec. (7.00 ticks, tree = 0.01 MB, solutions = 6)
*    10+    9                       3.19133e+07   2.84567e+07            10.83%
*    10+    5                       3.10494e+07   2.84567e+07             8.35%
*    15     8      integral     0   3.06572e+07   2.84567e+07      113    7.18%
*    17     5      integral     0   3.06466e+07   2.84567e+07      119    7.15%

Gomory fractional cuts applied:  3

Root node processing (before b&c):
  Real time             =    0.01 sec. (7.06 ticks)
Sequential b&c:
  Real time             =    0.00 sec. (1.98 ticks)
                          ------------
Total (root+branch&cut) =    0.01 sec. (9.04 ticks)

Solution pool: 10 solutions saved.

MIP - Integer optimal solution:  Objective =  3.0646580000e+07
Solution time =    0.01 sec.  Iterations = 200  Nodes = 73
Deterministic time = 9.04 ticks  (794.30 ticks/sec)


Incumbent solution written to file '/tmp/tmpWDlYqz.cplex.sol'.
